n_res = 6;
rcap = [20, 24, 24, 21, 45, 51];
rtype = [1, 1, 1, 1, 2, 2];
n_tasks = 16;
modes = [ {1, 2, 3}, {4, 5, 6}, {7, 8, 9}, {10, 11, 12}, {13, 14, 15}, {16, 17, 18}, {19, 20, 21}, {22, 23, 24}, {25, 26, 27}, {28, 29, 30}, {31, 32, 33}, {34, 35, 36}, {37, 38, 39}, {40, 41, 42}, {43, 44, 45}, {46, 47, 48} ];
succ = [ {5, 6, 9}, {7, 13}, {4, 8, 13}, {5, 12}, {11, 14, 15}, {13}, {10, 12, 16}, {10, 11}, {11, 12}, {14, 15}, {16}, {14, 15}, {16}, {}, {}, {} ];
n_opt = 48;
dur = [4, 6, 6, 1, 9, 9, 2, 7, 7, 5, 8, 9, 2, 3, 7, 1, 6, 8, 2, 2, 9, 2, 5, 9, 2, 8, 8, 3, 7, 10, 2, 2, 10, 1, 7, 8, 4, 5, 8, 2, 5, 6, 2, 5, 7, 2, 6, 8];
rreq = [|  4,  3,  1,  8,  7,  6,  3,  1,  1,  7,  6,  4,  8,  5,  5,  2,  1,  1,  1,  1,  1,  8,  7,  2,  4,  4,  4,  6,  5,  5,  6,  5,  5,  3,  2,  2,  7,  7,  6,  7,  6,  6,  9,  8,  6,  9,  7,  3
        |  8,  7,  7,  5,  5,  4,  9,  7,  4,  4,  3,  3,  8,  7,  7, 10,  7,  5,  2,  2,  1,  3,  3,  3,  7,  5,  6,  8,  8,  7,  6,  5,  4, 10,  9,  8,  5,  2,  2,  9,  9,  9, 10,  8,  7,  7,  4,  4
        |  9,  6,  7,  7,  5,  5,  6,  5,  5,  9,  8,  8,  8,  8,  6,  4,  4,  3,  2,  2,  2,  5,  4,  2,  4,  3,  2,  6,  4,  4,  4,  3,  2,  5,  5,  4, 10,  9,  6,  4,  4,  3,  5,  4,  1,  9,  8,  8
        |  6,  6,  6,  6,  4,  5,  4,  2,  1,  3,  3,  3,  8,  8,  7,  9,  7,  7,  8,  9,  3,  5,  4,  4,  7,  5,  6,  6,  3,  3,  8,  9,  7,  8,  6,  6,  3,  3,  2,  9,  9,  9,  5,  3,  2,  8,  8,  8
        |  5,  0,  0,  5,  4,  5,  9,  9,  0,  9,  4,  0,  0,  0,  0,  7,  6,  3,  0,  2,  0,  4,  0,  3,  0,  4,  5,  5,  5,  4,  0,  0,  0,  4,  4,  4,  9,  4,  2,  0,  0,  0,  0,  0,  5,  0,  3,  0
        |  0, 10,  9,  0,  0,  0,  0,  0,  9,  0,  0,  6,  7,  7,  7,  0,  0,  0,  3,  0,  4,  0,  9,  0,  7,  0,  0,  0,  0,  0,  8,  8,  7,  0,  0,  0,  0,  0,  0,  9,  8,  4,  4,  2,  0, 10,  0, 10 |];
